10-5006
11-5007
12-5054
20-5106
21-5107
22-5154
30-5206
31-5207
32-5254
13-5055
23-5155
33-5255
42-2121
40-2205
41-2223
80-4223
81-4105
82-4122
90-3013
91-3113
92-3112
83-4133
84-4205
92-3222
85-4123
93-3202
43-2311
100-1000